20
89.0
0 19 5.05 4.87
1 18 3.33 5.11
2 17 4.0 4.28
3 16 5.25 5.62
4 15 4.8 6.02
5 14 4.14 4.73
6 13 5.08 5.27
7 12 5.08 6.12
8 11 6.27 4.04
9 10 6.1 4.83
10 9 4.33 5.63
11 8 5.25 5.0
12 7 4.0 7.5
13 6 4.0 4.58
14 5 4.4 2.94
15 4 6.0 6.07
16 3 4.33 4.61
17 2 4.0 6.75
18 1 9.0 2.26
